tsp_component/tsp_opt_sols/rat575.opt.tsp.sol
NAME : rat575
COMMENT :  optimal TSP tour (length = 7094)
TYPE : TOUR CEIL_2D
DIMENSION : 575
TOUR_SECTION
1
25
24
47
70
71
93
94
116
117
95
118
141
139
140
163
162
185
186
209
208
231
254
255
277
278
279
280
257
282
281
304
303
302
301
300
325
324
323
346
347
348
349
326
327
350
351
352
353
329
328
305
307
330
308
331
332
309
310
311
288
289
290
266
242
265
264
263
262
286
287
285
284
306
283
261
260
259
258
235
234
256
232
233
210
211
212
187
188
189
190
191
192
193
194
195
217
216
215
214
213
236
237
238
239
240
241
218
219
220
243
244
245
267
268
269
292
270
271
272
250
251
274
273
297
296
318
295
294
293
291
314
315
316
317
339
338
337
336
313
312
334
335
358
357
356
333
355
354
378
379
380
381
359
383
360
361
362
340
341
365
364
363
386
385
384
382
405
404
403
402
401
400
377
376
375
374
373
372
395
371
370
369
392
393
394
418
419
396
397
398
399
422
421
420
442
441
417
416
415
438
439
440
465
464
486
463
462
461
484
485
507
508
509
510
487
511
488
489
512
513
537
536
535
557
534
533
532
531
530
553
554
555
556
558
559
560
561
562
539
538
515
514
492
516
493
494
495
496
519
518
541
517
540
563
564
565
566
567
543
542
544
520
521
522
523
524
525
548
547
546
545
568
569
570
571
572
573
574
575
552
551
550
549
527
528
529
506
483
482
458
459
460
437
414
436
435
434
433
432
431
430
453
476
477
454
455
456
457
479
480
481
505
504
526
503
502
501
478
500
499
498
497
474
475
452
451
450
473
472
471
448
447
446
468
470
469
491
490
466
467
443
444
445
423
424
425
426
449
427
428
429
406
407
408
409
387
410
388
411
412
389
413
391
390
367
368
366
342
343
319
320
344
345
322
321
298
299
276
275
252
253
230
228
227
226
225
249
248
247
246
223
224
222
200
199
198
221
197
196
174
175
176
177
201
202
203
179
180
157
182
181
204
205
229
206
207
184
183
160
161
137
159
158
136
135
134
111
112
113
91
114
138
115
92
69
68
67
66
90
89
88
110
109
107
108
131
132
133
155
156
178
154
153
152
151
128
130
129
105
106
83
84
85
86
87
65
64
63
62
61
60
82
81
104
102
103
126
125
101
100
99
123
124
122
146
147
148
127
149
150
173
172
171
170
169
168
145
167
166
165
164
142
143
144
121
120
119
96
97
98
75
76
77
78
79
80
58
59
36
37
38
39
16
40
41
42
19
43
44
45
46
23
22
21
20
18
17
15
14
12
13
35
34
11
10
9
6
7
8
30
31
32
33
57
56
55
54
53
52
29
28
50
51
74
73
72
49
48
26
27
5
4
3
2
-1
EOF
